benchmark/results/graph__10-1000-0.10-02_10/graph__10-1000-0.10-02_10_Quinton_Benders_aux.lp
\ This file has been generated by DOcplex
\ ENCODING=ISO-8859-1
\Problem name: Quinton Benders_auxiliary_sub

Minimize
 obj: 0.001129944073 pi_nr_a0 + 0.000873796383 pi_nr_a1
      + 0.001167206430 pi_nr_a2 + 0.000829875519 pi_nr_a3
      + 0.001520769955 pi_nr_a4 + 0.001092844287 pi_nr_a5
      + 0.001114827202 pi_nr_a6 + 0.000975609756 pi_nr_a7
      + 0.000863222376 pi_nr_a8 + 0.000802057998 pi_nr_a9 + pi_p_a0_a4
      + pi_p_a2_a5 + pi_p_a6_a7 + pi_p_a0_a7 + pi_p_a2_a4 + pi_p_a3_a5
      + pi_p_a9_a9 + pi_p_a0_a5 + 674.732960134501 pi_d_a0_a1_proc_1
      + 2540.949736298376 pi_d_a0_a1_proc_0 + 0.050263701624 pi_d_a1_a0_proc_1
      + 1866.267039865499 pi_d_a1_a0_proc_0
      + 1231.063355791250 pi_d_a0_a2_proc_1
      + 2540.750855792405 pi_d_a0_a2_proc_0 + 0.249144207595 pi_d_a2_a0_proc_1
      + 1309.936644208750 pi_d_a2_a0_proc_0 + 0.039597881910 pi_d_a0_a3_proc_1
      + 1.010665893638 pi_d_a3_a0_proc_1 + 1310.737763776704 pi_d_a0_a4_proc_1
      + 2540.949736224451 pi_d_a0_a4_proc_0 + 0.050263775549 pi_d_a4_a0_proc_1
      + 1230.262236223296 pi_d_a4_a0_proc_0
      + 1789.649926097256 pi_d_a0_a5_proc_1
      + 2540.949732163877 pi_d_a0_a5_proc_0 + 0.050267836123 pi_d_a5_a0_proc_1
      + 751.350073902744 pi_d_a5_a0_proc_0 + 1905.318200991240 pi_d_a0_a6_proc_0
      + 635.631535233211 pi_d_a6_a0_proc_0 + 1.050263775549 pi_d_a0_a7_proc_1
      + 2048.057156506118 pi_d_a0_a8_proc_1
      + 2540.961242600846 pi_d_a0_a8_proc_0 + 0.038757399154 pi_d_a8_a0_proc_1
      + 492.942843493882 pi_d_a8_a0_proc_0 + 1906.599228647277 pi_d_a0_a9_proc_1
      + 2541.587722196957 pi_d_a0_a9_proc_0 - 0.587722196957 pi_d_a9_a0_proc_1
      + 634.400771352724 pi_d_a9_a0_proc_0 + 1230.273677246365 pi_d_a1_a2_proc_1
      + 1866.278480962493 pi_d_a1_a2_proc_0 + 674.721519037507 pi_d_a2_a1_proc_1
      + 1310.726322753635 pi_d_a2_a1_proc_0 + 673.361984252930 pi_d_a1_a3_proc_1
      + 1.370975807646 pi_d_a3_a1_proc_1 + 636.121204734265 pi_d_a1_a4_proc_1
      + 1192.650480896985 pi_d_a1_a4_proc_0
      + 1348.349519103015 pi_d_a4_a1_proc_1
      + 1904.878795265735 pi_d_a4_a1_proc_0
      + 1190.304562069321 pi_d_a1_a5_proc_1
      + 1267.921671850915 pi_d_a1_a5_proc_0
      + 1273.078328149085 pi_d_a5_a1_proc_1
      + 1350.695437930679 pi_d_a5_a1_proc_0
      + 1866.267039939424 pi_d_a1_a6_proc_0 + pi_d_a6_a1_proc_0
      + 674.732894372532 pi_d_a1_a7_proc_1 + 0.000065688044 pi_d_a7_a1_proc_1
      + 793.244385655910 pi_d_a1_a8_proc_1 + 612.465775465611 pi_d_a1_a8_proc_0
      + 1928.534224534389 pi_d_a8_a1_proc_1
      + 1747.755614344090 pi_d_a8_a1_proc_0 + 675.870068625079 pi_d_a1_a9_proc_1
      + 637.175865889732 pi_d_a1_a9_proc_0 + 1903.824134110268 pi_d_a9_a1_proc_1
      + 1865.129931374921 pi_d_a9_a1_proc_0 + 635.227212955811 pi_d_a2_a3_proc_1
      + 596.035023267486 pi_d_a3_a2_proc_1 + 2541 pi_d_a2_a4_proc_1
      + 2541 pi_d_a2_a4_proc_0 + 2540.749510395572 pi_d_a2_a5_proc_1
      + 2061.837344014446 pi_d_a2_a5_proc_0 + 479.162655985554 pi_d_a5_a2_proc_1
      + 0.250489604428 pi_d_a5_a2_proc_0 + 0.515625476866 pi_d_a2_a6_proc_0
      + 1310.222138299838 pi_d_a6_a2_proc_0
      + 1231.262236223296 pi_d_a2_a7_proc_1 + 0.000000000000 pi_d_a7_a2_proc_1
      + 1270.840815055891 pi_d_a2_a8_proc_1 + 533.532928702872 pi_d_a2_a8_proc_0
      + 2007.467071297128 pi_d_a8_a2_proc_1
      + 1270.159184944109 pi_d_a8_a2_proc_0
      + 2541.584056550857 pi_d_a2_a9_proc_1
      + 1946.360577652790 pi_d_a2_a9_proc_0 + 594.639422347210 pi_d_a9_a2_proc_1
      - 0.584056550857 pi_d_a9_a2_proc_0 + 1271.901837985781 pi_d_a3_a4_proc_1
      + 38.835925790923 pi_d_a4_a3_proc_1 + 1271.038780369927 pi_d_a3_a5_proc_1
      + 518.611149787903 pi_d_a5_a3_proc_1 + 1.253906341743 pi_d_a3_a7_proc_1
      - 0.253906341743 pi_d_a7_a3_proc_1 + 2048.045650129729 pi_d_a3_a8_proc_1
      - 0.000000000005 pi_d_a8_a3_proc_1 + 1907.243045764144 pi_d_a3_a9_proc_1
      - 1.281803089373 pi_d_a9_a3_proc_1 + 1788.673062534319 pi_d_a4_a5_proc_1
      + 1230.285368599785 pi_d_a4_a5_proc_0
      + 1310.714631400215 pi_d_a5_a4_proc_1 + 752.326937465681 pi_d_a5_a4_proc_0
      + 1055.192345599096 pi_d_a4_a6_proc_0 + 176.069890624200 pi_d_a6_a4_proc_0
      + 0.436890514625 pi_d_a4_a7_proc_1 + 1310.300873262079 pi_d_a7_a4_proc_1
      + 1945.347408237991 pi_d_a4_a8_proc_1
      + 1128.563994331563 pi_d_a4_a8_proc_0
      + 1412.436005668437 pi_d_a8_a4_proc_1 + 595.652591762009 pi_d_a8_a4_proc_0
      + 1906.371131400098 pi_d_a4_a9_proc_1
      + 1231.672124948623 pi_d_a4_a9_proc_0
      + 1309.327875051377 pi_d_a9_a4_proc_1 + 634.628868599902 pi_d_a9_a4_proc_0
      + 751.271972674741 pi_d_a5_a6_proc_0 + 1.078097167429 pi_d_a6_a5_proc_0
      + 1789.070736466133 pi_d_a5_a7_proc_1 + 0.579193691698 pi_d_a7_a5_proc_1
      + 1947.894506403539 pi_d_a5_a8_proc_1 + 652.198926115985 pi_d_a5_a8_proc_0
      + 1888.801073884015 pi_d_a8_a5_proc_1 + 593.105493596461 pi_d_a8_a5_proc_0
      + 1790.337395713942 pi_d_a5_a9_proc_1 + 636.726222881341 pi_d_a5_a9_proc_0
      + 1904.273777118659 pi_d_a9_a5_proc_1 + 750.662604286058 pi_d_a9_a5_proc_0
      + 494.016613359079 pi_d_a6_a8_proc_0 - 0.062263488802 pi_d_a8_a6_proc_0
      + 636.624773024997 pi_d_a6_a9_proc_0 - 0.586015699768 pi_d_a9_a6_proc_0
      + 1905.601565969763 pi_d_a7_a8_proc_1 + 142.444084159961 pi_d_a8_a7_proc_1
      + 1884.625734817106 pi_d_a7_a9_proc_1 + 21.335507857665 pi_d_a9_a7_proc_1
      + 1429.531095128454 pi_d_a8_a9_proc_1 + 17.524202323960 pi_d_a8_a9_proc_0
      + 2523.475797676040 pi_d_a9_a8_proc_1
      + 1111.468904871546 pi_d_a9_a8_proc_0 + 0.000019788888 pi_y2_a0_proc_0
      + 0.999980211112 pi_y2_a0_proc_1 + 0.265249196874 pi_y2_a1_proc_0
      + 0.734750803126 pi_y2_a1_proc_1 + 0.484355211112 pi_y2_a2_proc_0
      + 0.515644788888 pi_y2_a2_proc_1 + pi_y2_a3_proc_1
      + 0.515644788888 pi_y2_a4_proc_0 + 0.484355211112 pi_y2_a4_proc_1
      + 0.704192885889 pi_y2_a5_proc_0 + 0.295807114111 pi_y2_a5_proc_1
      + pi_y2_a6_proc_0 + pi_y2_a7_proc_1 + 0.805923484303 pi_y2_a8_proc_0
      + 0.194076515697 pi_y2_a8_proc_1 + 0.749984741211 pi_y2_a9_proc_0
      + 0.250015258789 pi_y2_a9_proc_1
Subject To
 c1: 0.001129943503 pi_nr_a0 + 0.000864304235 pi_nr_a1 + 0.001270648030 pi_nr_a2
     + 0.000829875519 pi_nr_a3 + 0.001092896175 pi_nr_a4
     + 0.001183431953 pi_nr_a5 + 0.001114827202 pi_nr_a6
     + 0.000975609756 pi_nr_a7 + 0.000865800866 pi_nr_a8
     + 0.000787401575 pi_nr_a9 + pi_p_a0_a4 + pi_p_a2_a5 + pi_p_a6_a7
     + pi_p_a0_a7 + pi_p_a2_a4 + pi_p_a3_a5 + pi_p_a9_a9 + pi_p_a0_a5
     + pi_d_a0_a1_proc_1 + 2541 pi_d_a0_a1_proc_0 + 2540 pi_d_a1_a0_proc_0
     + pi_d_a0_a2_proc_1 + 2541 pi_d_a0_a2_proc_0 + 2540 pi_d_a2_a0_proc_0
     + pi_d_a3_a0_proc_1 + 2541 pi_d_a0_a4_proc_1 + 2541 pi_d_a0_a4_proc_0
     + 2541 pi_d_a0_a5_proc_1 + 2541 pi_d_a0_a5_proc_0 + 2540 pi_d_a0_a6_proc_0
     + pi_d_a6_a0_proc_0 + pi_d_a0_a7_proc_1 + 2541 pi_d_a0_a8_proc_1
     + 2541 pi_d_a0_a8_proc_0 + 2542 pi_d_a0_a9_proc_1 + 2542 pi_d_a0_a9_proc_0
     - pi_d_a9_a0_proc_1 - pi_d_a9_a0_proc_0 + 2540 pi_d_a1_a2_proc_0
     + pi_d_a2_a1_proc_1 + 2541 pi_d_a2_a1_proc_0 + pi_d_a3_a1_proc_1
     + pi_d_a1_a4_proc_1 + pi_d_a1_a4_proc_0 + 2540 pi_d_a4_a1_proc_1
     + 2540 pi_d_a4_a1_proc_0 + pi_d_a1_a5_proc_1 + pi_d_a1_a5_proc_0
     + 2540 pi_d_a5_a1_proc_1 + 2540 pi_d_a5_a1_proc_0 + 2540 pi_d_a1_a6_proc_0
     + pi_d_a6_a1_proc_0 + pi_d_a1_a7_proc_1 + pi_d_a1_a8_proc_1
     + pi_d_a1_a8_proc_0 + 2540 pi_d_a8_a1_proc_1 + 2540 pi_d_a8_a1_proc_0
     + 3 pi_d_a1_a9_proc_1 + 3 pi_d_a1_a9_proc_0 + 2538 pi_d_a9_a1_proc_1
     + 2538 pi_d_a9_a1_proc_0 + pi_d_a3_a2_proc_1 + 2541 pi_d_a2_a4_proc_1
     + 2541 pi_d_a2_a4_proc_0 + 2541 pi_d_a2_a5_proc_1 + 2541 pi_d_a2_a5_proc_0
     + pi_d_a2_a6_proc_0 + 2540 pi_d_a6_a2_proc_0 + pi_d_a2_a7_proc_1
     + pi_d_a2_a8_proc_1 + pi_d_a2_a8_proc_0 + 2540 pi_d_a8_a2_proc_1
     + 2540 pi_d_a8_a2_proc_0 + 2542 pi_d_a2_a9_proc_1 + 2542 pi_d_a2_a9_proc_0
     - pi_d_a9_a2_proc_1 - pi_d_a9_a2_proc_0 + 2542 pi_d_a3_a4_proc_1
     - pi_d_a4_a3_proc_1 + 2541 pi_d_a3_a5_proc_1 + pi_d_a3_a7_proc_1
     + 2541 pi_d_a3_a8_proc_1 + 2543 pi_d_a3_a9_proc_1 - 2 pi_d_a9_a3_proc_1
     + 2540 pi_d_a4_a5_proc_1 + 2541 pi_d_a5_a4_proc_1 + pi_d_a5_a4_proc_0
     + pi_d_a6_a4_proc_0 + 2541 pi_d_a7_a4_proc_1 + 2540 pi_d_a4_a8_proc_1
     + 2541 pi_d_a8_a4_proc_1 + pi_d_a8_a4_proc_0 + 2542 pi_d_a4_a9_proc_1
     + 2 pi_d_a4_a9_proc_0 + 2539 pi_d_a9_a4_proc_1 - pi_d_a9_a4_proc_0
     + pi_d_a6_a5_proc_0 + 2540 pi_d_a5_a7_proc_1 + pi_d_a7_a5_proc_1
     + 2541 pi_d_a5_a8_proc_1 + pi_d_a5_a8_proc_0 + 2540 pi_d_a8_a5_proc_1
     + 2542 pi_d_a5_a9_proc_1 + 2 pi_d_a5_a9_proc_0 + 2539 pi_d_a9_a5_proc_1
     - pi_d_a9_a5_proc_0 + pi_d_a6_a8_proc_0 + 2 pi_d_a6_a9_proc_0
     - pi_d_a9_a6_proc_0 + 2541 pi_d_a7_a8_proc_1 + 2513 pi_d_a7_a9_proc_1
     + 28 pi_d_a9_a7_proc_1 + 2542 pi_d_a8_a9_proc_1 + 2 pi_d_a8_a9_proc_0
     + 2539 pi_d_a9_a8_proc_1 - pi_d_a9_a8_proc_0 + pi_y2_a0_proc_1
     + pi_y2_a1_proc_1 + pi_y2_a2_proc_1 + pi_y2_a3_proc_1 + pi_y2_a4_proc_0
     + pi_y2_a5_proc_0 + pi_y2_a6_proc_0 + pi_y2_a7_proc_1 + pi_y2_a8_proc_0
     + pi_y2_a9_proc_0 = 0.000196772924
 c2: pi_nr_a0 + pi_nr_a1 + pi_nr_a2 + pi_nr_a3 + pi_nr_a4 + pi_nr_a5 + pi_nr_a6
     + pi_nr_a7 + pi_nr_a8 + pi_nr_a9 - pi_y1_a0 - pi_y1_a1 - pi_y1_a2
     - pi_y1_a3 - pi_y1_a4 - pi_y1_a5 - pi_y1_a6 - pi_y1_a7 - pi_y1_a8
     - pi_y1_a9 >= 1
 c3: - pi_p_a1_a0 + pi_p_a0_a4 - pi_p_a8_a0 + pi_p_a0_a7 + pi_p_a0_a5
     + pi_d_a0_a1_proc_1 + pi_d_a0_a1_proc_0 - pi_d_a1_a0_proc_1
     - pi_d_a1_a0_proc_0 + pi_d_a0_a2_proc_1 + pi_d_a0_a2_proc_0
     - pi_d_a2_a0_proc_1 - pi_d_a2_a0_proc_0 + pi_d_a0_a3_proc_1
     - pi_d_a3_a0_proc_1 + pi_d_a0_a4_proc_1 + pi_d_a0_a4_proc_0
     - pi_d_a4_a0_proc_1 - pi_d_a4_a0_proc_0 + pi_d_a0_a5_proc_1
     + pi_d_a0_a5_proc_0 - pi_d_a5_a0_proc_1 - pi_d_a5_a0_proc_0
     + pi_d_a0_a6_proc_0 - pi_d_a6_a0_proc_0 + pi_d_a0_a7_proc_1
     - pi_d_a7_a0_proc_1 + pi_d_a0_a8_proc_1 + pi_d_a0_a8_proc_0
     - pi_d_a8_a0_proc_1 - pi_d_a8_a0_proc_0 + pi_d_a0_a9_proc_1
     + pi_d_a0_a9_proc_0 - pi_d_a9_a0_proc_1 - pi_d_a9_a0_proc_0 >= 0
 c4: 863 pi_p_a0_a4 + 863 pi_p_a0_a7 + 863 pi_p_a0_a5 + 863 pi_d_a0_a1_proc_0
     + 863 pi_d_a0_a2_proc_0 + 863 pi_d_a0_a4_proc_0 + 863 pi_d_a0_a5_proc_0
     + 863 pi_d_a0_a6_proc_0 + 863 pi_d_a0_a8_proc_0 + 863 pi_d_a0_a9_proc_0
     + pi_y1_a0 + pi_y2_a0_proc_0 >= 0
 c5: 885 pi_p_a0_a4 + 885 pi_p_a0_a7 + 885 pi_p_a0_a5 + 885 pi_d_a0_a1_proc_1
     + 885 pi_d_a0_a2_proc_1 + 885 pi_d_a0_a3_proc_1 + 885 pi_d_a0_a4_proc_1
     + 885 pi_d_a0_a5_proc_1 + 885 pi_d_a0_a7_proc_1 + 885 pi_d_a0_a8_proc_1
     + 885 pi_d_a0_a9_proc_1 + pi_y1_a0 + pi_y2_a0_proc_1 >= 0
 c6: pi_p_a1_a0 + pi_p_a1_a2 - pi_p_a9_a1 - pi_p_a7_a1 - pi_d_a0_a1_proc_1
     - pi_d_a0_a1_proc_0 + pi_d_a1_a0_proc_1 + pi_d_a1_a0_proc_0
     + pi_d_a1_a2_proc_1 + pi_d_a1_a2_proc_0 - pi_d_a2_a1_proc_1
     - pi_d_a2_a1_proc_0 + pi_d_a1_a3_proc_1 - pi_d_a3_a1_proc_1
     + pi_d_a1_a4_proc_1 + pi_d_a1_a4_proc_0 - pi_d_a4_a1_proc_1
     - pi_d_a4_a1_proc_0 + pi_d_a1_a5_proc_1 + pi_d_a1_a5_proc_0
     - pi_d_a5_a1_proc_1 - pi_d_a5_a1_proc_0 + pi_d_a1_a6_proc_0
     - pi_d_a6_a1_proc_0 + pi_d_a1_a7_proc_1 - pi_d_a7_a1_proc_1
     + pi_d_a1_a8_proc_1 + pi_d_a1_a8_proc_0 - pi_d_a8_a1_proc_1
     - pi_d_a8_a1_proc_0 + pi_d_a1_a9_proc_1 + pi_d_a1_a9_proc_0
     - pi_d_a9_a1_proc_1 - pi_d_a9_a1_proc_0 >= 0
 c7: 1111 pi_p_a1_a0 + 1111 pi_p_a1_a2 + 1111 pi_d_a1_a0_proc_0
     + 1111 pi_d_a1_a2_proc_0 + 1111 pi_d_a1_a4_proc_0 + 1111 pi_d_a1_a5_proc_0
     + 1111 pi_d_a1_a6_proc_0 + 1111 pi_d_a1_a8_proc_0 + 1111 pi_d_a1_a9_proc_0
     + pi_y1_a1 + pi_y2_a1_proc_0 >= 0
 c8: 1157 pi_p_a1_a0 + 1157 pi_p_a1_a2 + 1157 pi_d_a1_a0_proc_1
     + 1157 pi_d_a1_a2_proc_1 + 1157 pi_d_a1_a3_proc_1 + 1157 pi_d_a1_a4_proc_1
     + 1157 pi_d_a1_a5_proc_1 + 1157 pi_d_a1_a7_proc_1 + 1157 pi_d_a1_a8_proc_1
     + 1157 pi_d_a1_a9_proc_1 + pi_y1_a1 + pi_y2_a1_proc_1 >= 0
 c9: - pi_p_a1_a2 + pi_p_a2_a3 + pi_p_a2_a5 - pi_p_a9_a2 + pi_p_a2_a4
     - pi_d_a0_a2_proc_1 - pi_d_a0_a2_proc_0 + pi_d_a2_a0_proc_1
     + pi_d_a2_a0_proc_0 - pi_d_a1_a2_proc_1 - pi_d_a1_a2_proc_0
     + pi_d_a2_a1_proc_1 + pi_d_a2_a1_proc_0 + pi_d_a2_a3_proc_1
     - pi_d_a3_a2_proc_1 + pi_d_a2_a4_proc_1 + pi_d_a2_a4_proc_0
     - pi_d_a4_a2_proc_1 - pi_d_a4_a2_proc_0 + pi_d_a2_a5_proc_1
     + pi_d_a2_a5_proc_0 - pi_d_a5_a2_proc_1 - pi_d_a5_a2_proc_0
     + pi_d_a2_a6_proc_0 - pi_d_a6_a2_proc_0 + pi_d_a2_a7_proc_1
     - pi_d_a7_a2_proc_1 + pi_d_a2_a8_proc_1 + pi_d_a2_a8_proc_0
     - pi_d_a8_a2_proc_1 - pi_d_a8_a2_proc_0 + pi_d_a2_a9_proc_1
     + pi_d_a2_a9_proc_0 - pi_d_a9_a2_proc_1 - pi_d_a9_a2_proc_0 >= 0
 c10: 946 pi_p_a2_a3 + 946 pi_p_a2_a5 + 946 pi_p_a2_a4 + 946 pi_d_a2_a0_proc_0
      + 946 pi_d_a2_a1_proc_0 + 946 pi_d_a2_a4_proc_0 + 946 pi_d_a2_a5_proc_0
      + 946 pi_d_a2_a6_proc_0 + 946 pi_d_a2_a8_proc_0 + 946 pi_d_a2_a9_proc_0
      + pi_y1_a2 + pi_y2_a2_proc_0 >= 0
 c11: 787 pi_p_a2_a3 + 787 pi_p_a2_a5 + 787 pi_p_a2_a4 + 787 pi_d_a2_a0_proc_1
      + 787 pi_d_a2_a1_proc_1 + 787 pi_d_a2_a3_proc_1 + 787 pi_d_a2_a4_proc_1
      + 787 pi_d_a2_a5_proc_1 + 787 pi_d_a2_a7_proc_1 + 787 pi_d_a2_a8_proc_1
      + 787 pi_d_a2_a9_proc_1 + pi_y1_a2 + pi_y2_a2_proc_1 >= 0
 c12: - pi_p_a2_a3 + pi_p_a3_a5 - pi_d_a0_a3_proc_1 + pi_d_a3_a0_proc_1
      - pi_d_a1_a3_proc_1 + pi_d_a3_a1_proc_1 - pi_d_a2_a3_proc_1
      + pi_d_a3_a2_proc_1 + pi_d_a3_a4_proc_1 - pi_d_a4_a3_proc_1
      + pi_d_a3_a5_proc_1 - pi_d_a5_a3_proc_1 + pi_d_a3_a7_proc_1
      - pi_d_a7_a3_proc_1 + pi_d_a3_a8_proc_1 - pi_d_a8_a3_proc_1
      + pi_d_a3_a9_proc_1 - pi_d_a9_a3_proc_1 >= 0
 c13: 1205 pi_p_a3_a5 + 1205 pi_d_a3_a0_proc_1 + 1205 pi_d_a3_a1_proc_1
      + 1205 pi_d_a3_a2_proc_1 + 1205 pi_d_a3_a4_proc_1 + 1205 pi_d_a3_a5_proc_1
      + 1205 pi_d_a3_a7_proc_1 + 1205 pi_d_a3_a8_proc_1 + 1205 pi_d_a3_a9_proc_1
      + pi_y1_a3 + pi_y2_a3_proc_1 >= 0
 c14: - pi_p_a0_a4 - pi_p_a2_a4 + pi_p_a4_a8 - pi_d_a0_a4_proc_1
      - pi_d_a0_a4_proc_0 + pi_d_a4_a0_proc_1 + pi_d_a4_a0_proc_0
      - pi_d_a1_a4_proc_1 - pi_d_a1_a4_proc_0 + pi_d_a4_a1_proc_1
      + pi_d_a4_a1_proc_0 - pi_d_a2_a4_proc_1 - pi_d_a2_a4_proc_0
      + pi_d_a4_a2_proc_1 + pi_d_a4_a2_proc_0 - pi_d_a3_a4_proc_1
      + pi_d_a4_a3_proc_1 + pi_d_a4_a5_proc_1 + pi_d_a4_a5_proc_0
      - pi_d_a5_a4_proc_1 - pi_d_a5_a4_proc_0 + pi_d_a4_a6_proc_0
      - pi_d_a6_a4_proc_0 + pi_d_a4_a7_proc_1 - pi_d_a7_a4_proc_1
      + pi_d_a4_a8_proc_1 + pi_d_a4_a8_proc_0 - pi_d_a8_a4_proc_1
      - pi_d_a8_a4_proc_0 + pi_d_a4_a9_proc_1 + pi_d_a4_a9_proc_0
      - pi_d_a9_a4_proc_1 - pi_d_a9_a4_proc_0 >= 0
 c15: 915 pi_p_a4_a8 + 915 pi_d_a4_a0_proc_0 + 915 pi_d_a4_a1_proc_0
      + 915 pi_d_a4_a2_proc_0 + 915 pi_d_a4_a5_proc_0 + 915 pi_d_a4_a6_proc_0
      + 915 pi_d_a4_a8_proc_0 + 915 pi_d_a4_a9_proc_0 + pi_y1_a4
      + pi_y2_a4_proc_0 >= 0
 c16: 506 pi_p_a4_a8 + 506 pi_d_a4_a0_proc_1 + 506 pi_d_a4_a1_proc_1
      + 506 pi_d_a4_a2_proc_1 + 506 pi_d_a4_a3_proc_1 + 506 pi_d_a4_a5_proc_1
      + 506 pi_d_a4_a7_proc_1 + 506 pi_d_a4_a8_proc_1 + 506 pi_d_a4_a9_proc_1
      + pi_y1_a4 + pi_y2_a4_proc_1 >= 0
 c17: - pi_p_a2_a5 + pi_p_a5_a6 - pi_p_a3_a5 - pi_p_a0_a5 - pi_d_a0_a5_proc_1
      - pi_d_a0_a5_proc_0 + pi_d_a5_a0_proc_1 + pi_d_a5_a0_proc_0
      - pi_d_a1_a5_proc_1 - pi_d_a1_a5_proc_0 + pi_d_a5_a1_proc_1
      + pi_d_a5_a1_proc_0 - pi_d_a2_a5_proc_1 - pi_d_a2_a5_proc_0
      + pi_d_a5_a2_proc_1 + pi_d_a5_a2_proc_0 - pi_d_a3_a5_proc_1
      + pi_d_a5_a3_proc_1 - pi_d_a4_a5_proc_1 - pi_d_a4_a5_proc_0
      + pi_d_a5_a4_proc_1 + pi_d_a5_a4_proc_0 + pi_d_a5_a6_proc_0
      - pi_d_a6_a5_proc_0 + pi_d_a5_a7_proc_1 - pi_d_a7_a5_proc_1
      + pi_d_a5_a8_proc_1 + pi_d_a5_a8_proc_0 - pi_d_a8_a5_proc_1
      - pi_d_a8_a5_proc_0 + pi_d_a5_a9_proc_1 + pi_d_a5_a9_proc_0
      - pi_d_a9_a5_proc_1 - pi_d_a9_a5_proc_0 >= 0
 c18: 845 pi_p_a5_a6 + 845 pi_d_a5_a0_proc_0 + 845 pi_d_a5_a1_proc_0
      + 845 pi_d_a5_a2_proc_0 + 845 pi_d_a5_a4_proc_0 + 845 pi_d_a5_a6_proc_0
      + 845 pi_d_a5_a8_proc_0 + 845 pi_d_a5_a9_proc_0 + pi_y1_a5
      + pi_y2_a5_proc_0 >= 0
 c19: 1140 pi_p_a5_a6 + 1140 pi_d_a5_a0_proc_1 + 1140 pi_d_a5_a1_proc_1
      + 1140 pi_d_a5_a2_proc_1 + 1140 pi_d_a5_a3_proc_1 + 1140 pi_d_a5_a4_proc_1
      + 1140 pi_d_a5_a7_proc_1 + 1140 pi_d_a5_a8_proc_1 + 1140 pi_d_a5_a9_proc_1
      + pi_y1_a5 + pi_y2_a5_proc_1 >= 0
 c20: - pi_p_a5_a6 + pi_p_a6_a7 - pi_p_a7_a6 - pi_d_a0_a6_proc_0
      + pi_d_a6_a0_proc_0 - pi_d_a1_a6_proc_0 + pi_d_a6_a1_proc_0
      - pi_d_a2_a6_proc_0 + pi_d_a6_a2_proc_0 - pi_d_a4_a6_proc_0
      + pi_d_a6_a4_proc_0 - pi_d_a5_a6_proc_0 + pi_d_a6_a5_proc_0
      + pi_d_a6_a8_proc_0 - pi_d_a8_a6_proc_0 + pi_d_a6_a9_proc_0
      - pi_d_a9_a6_proc_0 >= 0
 c21: 897 pi_p_a6_a7 + 897 pi_d_a6_a0_proc_0 + 897 pi_d_a6_a1_proc_0
      + 897 pi_d_a6_a2_proc_0 + 897 pi_d_a6_a4_proc_0 + 897 pi_d_a6_a5_proc_0
      + 897 pi_d_a6_a8_proc_0 + 897 pi_d_a6_a9_proc_0 + pi_y1_a6
      + pi_y2_a6_proc_0 >= 0
 c22: - pi_p_a6_a7 - pi_p_a0_a7 + pi_p_a7_a1 + pi_p_a7_a6 - pi_d_a0_a7_proc_1
      + pi_d_a7_a0_proc_1 - pi_d_a1_a7_proc_1 + pi_d_a7_a1_proc_1
      - pi_d_a2_a7_proc_1 + pi_d_a7_a2_proc_1 - pi_d_a3_a7_proc_1
      + pi_d_a7_a3_proc_1 - pi_d_a4_a7_proc_1 + pi_d_a7_a4_proc_1
      - pi_d_a5_a7_proc_1 + pi_d_a7_a5_proc_1 + pi_d_a7_a8_proc_1
      - pi_d_a8_a7_proc_1 + pi_d_a7_a9_proc_1 - pi_d_a9_a7_proc_1 >= 0
 c23: 1025 pi_p_a7_a1 + 1025 pi_p_a7_a6 + 1025 pi_d_a7_a0_proc_1
      + 1025 pi_d_a7_a1_proc_1 + 1025 pi_d_a7_a2_proc_1 + 1025 pi_d_a7_a3_proc_1
      + 1025 pi_d_a7_a4_proc_1 + 1025 pi_d_a7_a5_proc_1 + 1025 pi_d_a7_a8_proc_1
      + 1025 pi_d_a7_a9_proc_1 + pi_y1_a7 + pi_y2_a7_proc_1 >= 0
 c24: pi_p_a8_a0 - pi_p_a4_a8 - pi_d_a0_a8_proc_1 - pi_d_a0_a8_proc_0
      + pi_d_a8_a0_proc_1 + pi_d_a8_a0_proc_0 - pi_d_a1_a8_proc_1
      - pi_d_a1_a8_proc_0 + pi_d_a8_a1_proc_1 + pi_d_a8_a1_proc_0
      - pi_d_a2_a8_proc_1 - pi_d_a2_a8_proc_0 + pi_d_a8_a2_proc_1
      + pi_d_a8_a2_proc_0 - pi_d_a3_a8_proc_1 + pi_d_a8_a3_proc_1
      - pi_d_a4_a8_proc_1 - pi_d_a4_a8_proc_0 + pi_d_a8_a4_proc_1
      + pi_d_a8_a4_proc_0 - pi_d_a5_a8_proc_1 - pi_d_a5_a8_proc_0
      + pi_d_a8_a5_proc_1 + pi_d_a8_a5_proc_0 - pi_d_a6_a8_proc_0
      + pi_d_a8_a6_proc_0 - pi_d_a7_a8_proc_1 + pi_d_a8_a7_proc_1
      + pi_d_a8_a9_proc_1 + pi_d_a8_a9_proc_0 - pi_d_a9_a8_proc_1
      - pi_d_a9_a8_proc_0 >= 0
 c25: 1155 pi_p_a8_a0 + 1155 pi_d_a8_a0_proc_0 + 1155 pi_d_a8_a1_proc_0
      + 1155 pi_d_a8_a2_proc_0 + 1155 pi_d_a8_a4_proc_0 + 1155 pi_d_a8_a5_proc_0
      + 1155 pi_d_a8_a6_proc_0 + 1155 pi_d_a8_a9_proc_0 + pi_y1_a8
      + pi_y2_a8_proc_0 >= 0
 c26: 1173 pi_p_a8_a0 + 1173 pi_d_a8_a0_proc_1 + 1173 pi_d_a8_a1_proc_1
      + 1173 pi_d_a8_a2_proc_1 + 1173 pi_d_a8_a3_proc_1 + 1173 pi_d_a8_a4_proc_1
      + 1173 pi_d_a8_a5_proc_1 + 1173 pi_d_a8_a7_proc_1 + 1173 pi_d_a8_a9_proc_1
      + pi_y1_a8 + pi_y2_a8_proc_1 >= 0
 c27: pi_p_a9_a2 + pi_p_a9_a1 - pi_d_a0_a9_proc_1 - pi_d_a0_a9_proc_0
      + pi_d_a9_a0_proc_1 + pi_d_a9_a0_proc_0 - pi_d_a1_a9_proc_1
      - pi_d_a1_a9_proc_0 + pi_d_a9_a1_proc_1 + pi_d_a9_a1_proc_0
      - pi_d_a2_a9_proc_1 - pi_d_a2_a9_proc_0 + pi_d_a9_a2_proc_1
      + pi_d_a9_a2_proc_0 - pi_d_a3_a9_proc_1 + pi_d_a9_a3_proc_1
      - pi_d_a4_a9_proc_1 - pi_d_a4_a9_proc_0 + pi_d_a9_a4_proc_1
      + pi_d_a9_a4_proc_0 - pi_d_a5_a9_proc_1 - pi_d_a5_a9_proc_0
      + pi_d_a9_a5_proc_1 + pi_d_a9_a5_proc_0 - pi_d_a6_a9_proc_0
      + pi_d_a9_a6_proc_0 - pi_d_a7_a9_proc_1 + pi_d_a9_a7_proc_1
      - pi_d_a8_a9_proc_1 - pi_d_a8_a9_proc_0 + pi_d_a9_a8_proc_1
      + pi_d_a9_a8_proc_0 >= 0
 c28: 1270 pi_p_a9_a2 + 1270 pi_p_a9_a1 + 1270 pi_p_a9_a9
      + 1270 pi_d_a9_a0_proc_0 + 1270 pi_d_a9_a1_proc_0 + 1270 pi_d_a9_a2_proc_0
      + 1270 pi_d_a9_a4_proc_0 + 1270 pi_d_a9_a5_proc_0 + 1270 pi_d_a9_a6_proc_0
      + 1270 pi_d_a9_a8_proc_0 + pi_y1_a9 + pi_y2_a9_proc_0 >= 0
 c29: 1182 pi_p_a9_a2 + 1182 pi_p_a9_a1 + 1182 pi_p_a9_a9
      + 1182 pi_d_a9_a0_proc_1 + 1182 pi_d_a9_a1_proc_1 + 1182 pi_d_a9_a2_proc_1
      + 1182 pi_d_a9_a3_proc_1 + 1182 pi_d_a9_a4_proc_1 + 1182 pi_d_a9_a5_proc_1
      + 1182 pi_d_a9_a7_proc_1 + 1182 pi_d_a9_a8_proc_1 + pi_y1_a9
      + pi_y2_a9_proc_1 >= 0

Bounds
       pi_y1_a0 Free
       pi_y1_a1 Free
       pi_y1_a2 Free
       pi_y1_a3 Free
       pi_y1_a4 Free
       pi_y1_a5 Free
       pi_y1_a6 Free
       pi_y1_a7 Free
       pi_y1_a8 Free
       pi_y1_a9 Free
End
