benchmark/results/graph__10-1000-0.10-02_10/graph__10-1000-0.10-02_10_Quinton_Benders_aux.txt
solution for: Quinton Benders_auxiliary_sub
objective: 0.512424
status: OPTIMAL_SOLUTION(2)
pi_p_a5_a6=0.000
pi_p_a4_a8=0.000
pi_d_a9_a4_proc_0=0.000
pi_d_a8_a5_proc_0=0.000
pi_d_a6_a9_proc_0=0.000
pi_y1_a4=-0.180
pi_y1_a5=-0.166
pi_y1_a6=-0.177
pi_y1_a8=-0.227
pi_y1_a9=-0.250
pi_y2_a4_proc_1=0.080
pi_y2_a8_proc_1=0.227
pi_y2_a9_proc_1=0.250
